(declare-fun _substvar_283_ () Bool)
(declare-fun _substvar_538_ () Int)
(declare-fun _substvar_548_ () Int)
(declare-const i4 Int)
(declare-const i10 Int)
(declare-const v18 Bool)
(declare-const arr--3638920665728451041_-7015784510452423728-0 (Array Bool Int))
(assert (or (= _substvar_548_ i10 0) (= (- i4 77 0 35 35) i10 _substvar_538_)))
(assert (or _substvar_283_ (< (select (store arr--3638920665728451041_-7015784510452423728-0 v18 996) false) i4)))
(check-sat)
